peakDumbCharging = 25900; 
Machine = anon_enum(16); 
machineSpeed = [3700,3700,3700,3700,3700,3700,3700,3700,3700,3700,3700,3700,3700,3700,3700,3700]; 
machineLoad = [3700,3700,3700,3700,3700,3700,3700,3700,3700,3700,3700,3700,3700,3700,3700,3700]; 
Car = anon_enum(33); 
demandCar = [2080,240,8080,12680,2480,11400,5680,2440,5640,8040,2280,10400,3560,3000,4000,23200,1760,25880,6640,14800,4800,5640,3000,8160,8160,4880,5080,5760,58520,31000,28440,32280,21680]; 
arrivalCar = [72,71,70,68,66,66,64,63,62,62,61,61,60,59,59,58,58,56,54,53,50,50,47,46,42,34,34,33,33,28,26,26,23]; 
departureCar = [74,72,76,73,68,71,67,67,68,67,63,66,63,63,62,71,60,68,58,63,53,53,50,68,45,38,39,38,60,44,49,58,62]; 
